objective value:                 0.000855289342999837
x_1_2                                               1 	(obj:0)
x_2_1                                               1 	(obj:0)
x_3_2                                               1 	(obj:0)
x_4_3                                               1 	(obj:0)
x_5_3                                               1 	(obj:0)
x_6_1                                               1 	(obj:0)
x_7_1                                               1 	(obj:0)
x_8_2                                               1 	(obj:0)
x_9_3                                               1 	(obj:0)
x_10_3                                              1 	(obj:0)
x_11_2                                              1 	(obj:0)
x_12_2                                              1 	(obj:0)
x_13_1                                              1 	(obj:0)
x_14_1                                              1 	(obj:0)
x_15_3                                              1 	(obj:0)
x_16_2                                              1 	(obj:0)
x_17_1                                              1 	(obj:0)
x_18_1                                              1 	(obj:0)
x_19_2                                              1 	(obj:0)
x_20_2                                              1 	(obj:0)
ind_1                                               1 	(obj:0)
abs_1_2                                             1 	(obj:0)
ind_2                                               1 	(obj:0)
abs_2_3                                             1 	(obj:0)
ind_3                                               1 	(obj:0)
abs_3_1                                             1 	(obj:0)
epsI                             0.000855289342999837 	(obj:1)
prodt_x_19_2_t_x_20_2_coh_2                         1 	(obj:0)
prodt_x_1_2_t_x_2_1_more_coh_1           0.1308091714 	(obj:0)
prodt_x_2_1_t_x_3_1_more_coh_1           6.0963251783 	(obj:0)
prodt_x_6_1_t_x_7_1_more_coh_1           4.6562682865 	(obj:0)
prodt_x_7_1_t_x_9_1_more_coh_1           3.7590912704 	(obj:0)
prodt_x_13_1_t_x_15_1_more_coh_1         3.5619673414 	(obj:0)
prodt_x_14_1_t_x_15_1_more_coh_1         0.7596623457 	(obj:0)
prodt_x_17_1_t_x_18_1_more_coh_1         1.1778587791 	(obj:0)
prodt_x_1_2_t_x_2_2_more_coh_2           3.8693362223 	(obj:0)
prodt_x_3_2_t_x_4_2_more_coh_2           3.1580528331 	(obj:0)
prodt_x_8_2_t_x_11_2_more_coh_2           3.415926061 	(obj:0)
prodt_x_11_2_t_x_12_2_more_coh_2          2.407222105 	(obj:0)
prodt_x_12_2_t_x_13_2_more_coh_2         2.5123014736 	(obj:0)
prodt_x_16_2_t_x_17_2_more_coh_2         1.0691334433 	(obj:0)
prodt_x_4_3_t_x_5_3_more_coh_3           2.8904170114 	(obj:0)
prodt_x_5_3_t_x_6_3_more_coh_3           2.6805327487 	(obj:0)
prodt_x_9_3_t_x_14_3_more_coh_3           2.289477431 	(obj:0)
prodt_x_10_3_t_x_11_3_more_coh_3         1.8581144075 	(obj:0)
prodt_x_1_2_t_x_2_2_more_irrev1_2_1     2.63764061351759 	(obj:0)
prodt_x_2_1_t_x_4_2_more_irrev1_2_1    0.647861940128997 	(obj:0)
prodt_x_3_2_t_x_4_1_more_irrev1_2_1     3.53229628052777 	(obj:0)
prodt_x_6_1_t_x_7_2_more_irrev1_2_1     3.74511271569357 	(obj:0)
prodt_x_7_1_t_x_8_2_more_irrev1_2_1    0.359119449999999 	(obj:0)
prodt_x_8_2_t_x_9_1_more_irrev1_2_1     1.33177150296844 	(obj:0)
prodt_x_11_2_t_x_13_1_more_irrev1_2_1     2.84249794704802 	(obj:0)
prodt_x_12_2_t_x_13_1_more_irrev1_2_1           0.30961112 	(obj:0)
prodt_x_13_1_t_x_14_2_more_irrev1_2_1    0.857319898580156 	(obj:0)
prodt_x_14_1_t_x_16_2_more_irrev1_2_1     2.19842056837871 	(obj:0)
prodt_x_16_2_t_x_19_1_more_irrev1_2_1    0.581250851492141 	(obj:0)
prodt_x_17_1_t_x_20_2_more_irrev1_2_1    0.142476960919286 	(obj:0)
prodt_x_18_1_t_x_19_2_more_irrev1_2_1     1.75161495333587 	(obj:0)
prodt_x_1_2_t_x_2_2_more_irrev2_2_1    -2.63764061351759 	(obj:0)
prodt_x_2_1_t_x_4_2_more_irrev2_2_1   -0.647861940128998 	(obj:0)
prodt_x_3_2_t_x_4_1_more_irrev2_2_1    -3.53229628052777 	(obj:0)
prodt_x_6_1_t_x_7_2_more_irrev2_2_1    -3.74511271569357 	(obj:0)
prodt_x_7_1_t_x_8_2_more_irrev2_2_1   -0.359119449999999 	(obj:0)
prodt_x_8_2_t_x_9_1_more_irrev2_2_1    -1.33177150296844 	(obj:0)
prodt_x_11_2_t_x_13_1_more_irrev2_2_1    -2.84249794704802 	(obj:0)
prodt_x_12_2_t_x_13_1_more_irrev2_2_1          -0.30961112 	(obj:0)
prodt_x_13_1_t_x_14_2_more_irrev2_2_1   -0.857319898580156 	(obj:0)
prodt_x_14_1_t_x_16_2_more_irrev2_2_1    -2.19842056837871 	(obj:0)
prodt_x_16_2_t_x_19_1_more_irrev2_2_1   -0.581250851492141 	(obj:0)
prodt_x_17_1_t_x_20_2_more_irrev2_2_1   -0.142476960919286 	(obj:0)
prodt_x_18_1_t_x_19_2_more_irrev2_2_1     1.75161495333587 	(obj:0)
prodt_x_1_2_t_x_2_3_more_irrev1_3_1    -2.63788161747201 	(obj:0)
prodt_x_2_1_t_x_4_3_more_irrev1_3_1    -2.42094313207602 	(obj:0)
prodt_x_4_3_t_x_7_1_more_irrev1_3_1    -2.16581420000001 	(obj:0)
prodt_x_5_3_t_x_7_1_more_irrev1_3_1   -0.687421144947519 	(obj:0)
prodt_x_6_1_t_x_7_3_more_irrev1_3_1    -1.08504120883019 	(obj:0)
prodt_x_7_1_t_x_8_3_more_irrev1_3_1    -1.58407487999999 	(obj:0)
prodt_x_9_3_t_x_11_1_more_irrev1_3_1   -0.774995283374593 	(obj:0)
prodt_x_10_3_t_x_12_1_more_irrev1_3_1    -2.43646274247449 	(obj:0)
prodt_x_13_1_t_x_14_3_more_irrev1_3_1                   -1 	(obj:0)
prodt_x_14_1_t_x_16_3_more_irrev1_3_1  -0.0403437625206451 	(obj:0)
prodt_x_15_3_t_x_16_1_more_irrev1_3_1    -1.43114153917708 	(obj:0)
prodt_x_1_2_t_x_2_3_more_irrev2_3_1     2.63788161747201 	(obj:0)
prodt_x_2_1_t_x_4_3_more_irrev2_3_1     2.42094313207603 	(obj:0)
prodt_x_4_3_t_x_7_1_more_irrev2_3_1     2.16581420000001 	(obj:0)
prodt_x_5_3_t_x_7_1_more_irrev2_3_1    0.687421144947518 	(obj:0)
prodt_x_6_1_t_x_7_3_more_irrev2_3_1     1.08504120883019 	(obj:0)
prodt_x_7_1_t_x_8_3_more_irrev2_3_1     1.58407487999999 	(obj:0)
prodt_x_9_3_t_x_11_1_more_irrev2_3_1    0.774995283374593 	(obj:0)
prodt_x_10_3_t_x_12_1_more_irrev2_3_1     2.43646274247449 	(obj:0)
prodt_x_13_1_t_x_14_3_more_irrev2_3_1                    1 	(obj:0)
prodt_x_14_1_t_x_16_3_more_irrev2_3_1   0.0403437625206453 	(obj:0)
prodt_x_15_3_t_x_16_1_more_irrev2_3_1     1.43114153917708 	(obj:0)
prodt_x_1_2_t_x_2_3_more_irrev1_3_2     2.63788161747201 	(obj:0)
prodt_x_3_2_t_x_4_3_more_irrev1_3_2    0.341231078318465 	(obj:0)
prodt_x_4_3_t_x_7_2_more_irrev1_3_2           1.08660135 	(obj:0)
prodt_x_5_3_t_x_7_2_more_irrev1_3_2     2.90842165776213 	(obj:0)
prodt_x_8_2_t_x_9_3_more_irrev1_3_2     1.75580000605578 	(obj:0)
prodt_x_9_3_t_x_11_2_more_irrev1_3_2     2.79773561240755 	(obj:0)
prodt_x_10_3_t_x_12_2_more_irrev1_3_2    0.802626169039299 	(obj:0)
prodt_x_11_2_t_x_13_3_more_irrev1_3_2    0.185168495831241 	(obj:0)
prodt_x_12_2_t_x_14_3_more_irrev1_3_2    0.751998169999995 	(obj:0)
prodt_x_15_3_t_x_16_2_more_irrev1_3_2     1.67321694592964 	(obj:0)
prodt_x_1_2_t_x_2_3_more_irrev2_3_2    -2.63788161747201 	(obj:0)
prodt_x_3_2_t_x_4_3_more_irrev2_3_2   -0.341231078318463 	(obj:0)
prodt_x_4_3_t_x_7_2_more_irrev2_3_2          -1.08660135 	(obj:0)
prodt_x_5_3_t_x_7_2_more_irrev2_3_2    -2.90842165776213 	(obj:0)
prodt_x_8_2_t_x_9_3_more_irrev2_3_2    -1.75580000605578 	(obj:0)
prodt_x_9_3_t_x_11_2_more_irrev2_3_2    -2.79773561240754 	(obj:0)
prodt_x_10_3_t_x_12_2_more_irrev2_3_2   -0.802626169039299 	(obj:0)
prodt_x_11_2_t_x_13_3_more_irrev2_3_2   -0.185168495831241 	(obj:0)
prodt_x_12_2_t_x_14_3_more_irrev2_3_2   -0.751998169999995 	(obj:0)
prodt_x_15_3_t_x_16_2_more_irrev2_3_2    -1.67321694592964 	(obj:0)
SCIP Status        : solving was interrupted [time limit reached]
Total Time         :    3600.00
  solving          :    3600.00
  presolving       :       0.06 (included in solving)
  reading          :       0.00
  copying          :       1.87 (181 #copies) (minimal 0.00, maximal 0.02, average 0.01)
Original Problem   :
  Problem name     : ../instances/Pot4/Pot4_T_20B_alpha=4.txt.spa
  Variables        : 101 (100 binary, 0 integer, 0 implicit integer, 1 continuous)
  Constraints      : 193 initial, 193 maximal
  Objective sense  : maximize
Presolved Problem  :
  Problem name     : t_../instances/Pot4/Pot4_T_20B_alpha=4.txt.spa
  Variables        : 590 (92 binary, 0 integer, 16 implicit integer, 482 continuous)
  Constraints      : 2015 initial, 6878 maximal
Presolvers         :   ExecTime  SetupTime  Calls  FixedVars   AggrVars   ChgTypes  ChgBounds   AddHoles    DelCons    AddCons   ChgSides   ChgCoefs
  boundshift       :       0.00       0.00      0          0          0          0          0          0          0          0          0          0
  components       :       0.00       0.00      1          0          0          0          0          0          0          0          0          0
  convertinttobin  :       0.00       0.00      0          0          0          0          0          0          0          0          0          0
  domcol           :       0.00       0.00      1          0          0          0          0          0          0          0          0          0
  dualagg          :       0.00       0.00      0          0          0          0          0          0          0          0          0          0
  dualinfer        :       0.00       0.00      0          0          0          0          0          0          0          0          0          0
  gateextraction   :       0.00       0.00      3          0          0          0          0          0        108         34          0          0
  implfree         :       0.00       0.00      0          0          0          0          0          0          0          0          0          0
  implics          :       0.00       0.00      4          0          0          0          0          0          0          0          0          0
  inttobinary      :       0.00       0.00      0          0          0          0          0          0          0          0          0          0
  redvub           :       0.00       0.00      0          0          0          0          0          0          0          0          0          0
  stuffing         :       0.00       0.00      1          0          0          0          0          0          0          0          0          0
  trivial          :       0.00       0.00      7          0          0          0          0          0          0          0          0          0
  tworowbnd        :       0.00       0.00      0          0          0          0          0          0          0          0          0          0
  dualfix          :       0.00       0.00      7          4          0          0          0          0          0          0          0          0
  genvbounds       :       0.00       0.00      0          0          0          0          0          0          0          0          0          0
  probing          :       0.03       0.00      1          0          0          0          4          0          0          0          0          0
  pseudoobj        :       0.00       0.00      0          0          0          0          0          0          0          0          0          0
  varbound         :       0.00       0.00      9          0          0          0          0          0         28         28          0          0
  setppc           :       0.00       0.00     12          0          0          0          0          0          0          0          0          0
  and              :       0.00       0.00      4          0         12          0          0          0         12          0          0          0
  linear           :       0.02       0.00      9          3          1          0          4          0          7          0         12         12
  logicor          :       0.00       0.00      7          0          0          0          0          0          0          0          0          0
  bounddisjunction :       0.00       0.00      0          0          0          0          0          0          0          0          0          0
  quadratic        :       0.01       0.00      2          0          0          0          0          0          0       1915          0          0
  root node        :          -          -      -          1          -          -         83          -          -          -          -          -
Constraints        :     Number  MaxNumber  #Separate #Propagate    #EnfoLP    #EnfoPS     #Check   #ResProp    Cutoffs    DomReds       Cuts    Applied      Conss   Children
  integral         :          0          0          0          0    1890572          0     420016          0          0      35621          0          0        208    3743614
  varbound         :        869        869         81   11492382      15057          0     154652    4295860      63431   78156510          0          0          0          0
  setppc           :        110        110         81   11428633      15056          0       2692    2357416      12311    4788196          6          0          0          0
  and              :         22         22     117756     626366        183          0       2185     389420         11     108875        215        185          0          0
  linear           :        979        979         81   11416630      15021          0       2119    1734684     225146  110144031     712992     712784          0          0
  logicor          :         35+      1509         80    3124131          0          0          0      52700       2616     165338          3          2          0          0
  bounddisjunction :          0+      3818          0    5162519          0          0          0     847873       4302    8527734          0          0          0          0
  countsols        :          0          0          0          0          1          0     265303          0          0          0          0          0          0          0
Constraint Timings :  TotalTime  SetupTime   Separate  Propagate     EnfoLP     EnfoPS      Check    ResProp    SB-Prop
  integral         :      16.90       0.00       0.00       0.00      16.86       0.00       0.04       0.00       0.00
  varbound         :      64.39       0.00       0.00      62.41       0.11       0.00       0.98       0.78       0.11
  setppc           :      44.78       0.00       0.00      44.19       0.00       0.00       0.02       0.45       0.12
  and              :       0.53       0.00       0.12       0.26       0.00       0.00       0.01       0.14       0.00
  linear           :     185.91       0.00       0.01     183.79       0.56       0.00       0.04       1.22       0.29
  logicor          :      38.26       0.00       0.00      38.23       0.00       0.00       0.00       0.03       0.00
  bounddisjunction :     184.19       0.00       0.00     183.96       0.00       0.00       0.00       0.18       0.05
  countsols        :       0.00       0.00       0.00       0.00       0.00       0.00       0.00       0.00       0.00
Propagators        : #Propagate   #ResProp    Cutoffs    DomReds
  dualfix          :          2          0          0          0
  genvbounds       :          0          0          0          0
  obbt             :          0          0          0          0
  probing          :          0          0          0          0
  pseudoobj        :   11926229          0         32         81
  redcost          :    4201707          0       1382     718051
  rootredcost      :          4          0          0          1
  vbounds          :   13380006       9616          0       2159
Propagator Timings :  TotalTime  SetupTime   Presolve  Propagate    ResProp    SB-Prop
  dualfix          :       0.00       0.00       0.00       0.00       0.00       0.00
  genvbounds       :       1.79       0.00       0.00       1.79       0.00       0.00
  obbt             :       0.00       0.00       0.00       0.00       0.00       0.00
  probing          :       0.03       0.00       0.03       0.00       0.00       0.00
  pseudoobj        :       3.02       0.00       0.00       3.02       0.00       0.00
  redcost          :      25.78       0.00       0.00      25.78       0.00       0.00
  rootredcost      :       1.63       0.00       0.00       1.63       0.00       0.00
  vbounds          :       4.53       0.00       0.00       4.52       0.00       0.01
Conflict Analysis  :       Time      Calls    Success    DomReds  Conflicts   Literals    Reconvs ReconvLits   LP Iters
  propagation      :       3.94      85256      84677          -     854347       36.9       7460       45.1          -
  infeasible LP    :      18.38     119908     112322          -    1727576       36.1        205       13.6          0
  bound exceed. LP :       0.00          0          0          -          0        0.0          0        0.0          0
  strong branching :       0.00          0          0          -          0        0.0          0        0.0          0
  pseudo solution  :       0.00          0          0          -          0        0.0          0        0.0          -
  applied globally :       4.65          -          -          0     382321       19.9          -          -          -
  applied locally  :          -          -          -          0       2565       32.5          -          -          -
Separators         :   ExecTime  SetupTime      Calls    Cutoffs    DomReds       Cuts    Applied      Conss
  cut pool         :       0.00                    80          -          -       1011          -          -    (maximal pool size: 811)
  cgmip            :       0.00       0.00          0          0          0          0          0          0
  clique           :       0.00       0.00         81          0          0         29         23          0
  closecuts        :       0.00       0.00          0          0          0          0          0          0
  cmir             :       0.00       0.00         10          0          0        242        198          0
  disjunctive      :       0.00       0.00          0          0          0          0          0          0
  eccuts           :       0.00       0.00          0          0          0          0          0          0
  flowcover        :       0.13       0.00         15          0          0        308         21          0
  gomory           :       0.02       0.00         10          0          0          3          3          0
  impliedbounds    :       0.00       0.00         81          0          0        614        161          0
  intobj           :       0.00       0.00          0          0          0          0          0          0
  mcf              :       0.00       0.00          1          0          0          0          0          0
  oddcycle         :       0.00       0.00          0          0          0          0          0          0
  rapidlearning    :       0.00       0.00          0          0          0          0          0          0
  strongcg         :       0.05       0.00         20          0          0         22          4          0
  zerohalf         :       0.00       0.00          0          0          0          0          0          0
Pricers            :   ExecTime  SetupTime      Calls       Vars
  problem variables:       0.00          -          0          0
Branching Rules    :   ExecTime  SetupTime   BranchLP  BranchExt   BranchPS    Cutoffs    DomReds       Cuts      Conss   Children
  allfullstrong    :       0.00       0.00          0          0          0          0          0          0          0          0
  cloud            :       0.00       0.00          0          0          0          0          0          0          0          0
  distribution     :       0.00       0.00          0          0          0          0          0          0          0          0
  fullstrong       :       0.00       0.00          0          0          0          0          0          0          0          0
  inference        :       0.00       0.00          0          0          0          0          0          0          0          0
  leastinf         :       0.00       0.00          0          0          0          0          0          0          0          0
  mostinf          :       0.00       0.00          0          0          0          0          0          0          0          0
  multaggr         :       0.00       0.00          0          0          0          0          0          0          0          0
  nodereopt        :       0.00       0.00          0          0          0          0          0          0          0          0
  pscost           :       0.00       0.00          0          0          0          0          0          0          0          0
  random           :       0.00       0.00          0          0          0          0          0          0          0          0
  relpscost        :      16.04       0.00    1875515          0          0          0      35621          0       -271    3743614
Primal Heuristics  :   ExecTime  SetupTime      Calls      Found       Best
  LP solutions     :       0.00          -          -          1          -
  pseudo solutions :       0.00          -          -          0          -
  strong branching :       0.01          -          -          0          -
  SpaGreedy        :     281.24       0.00     265300          2          1
  actconsdiving    :       0.00       0.00          0          0          0
  bound            :       0.00       0.00          0          0          0
  clique           :       0.00       0.00          0          0          0
  coefdiving       :      33.87       0.00      10871          0          0
  crossover        :       0.79       0.00          1          0          0
  dins             :       0.00       0.00          0          0          0
  distributiondivin:      67.42       0.00      10870          0          0
  dualval          :       0.00       0.00          0          0          0
  feaspump         :      18.53       0.00       2220          0          0
  fixandinfer      :       0.00       0.00          0          0          0
  fracdiving       :      31.83       0.00      10871          0          0
  guideddiving     :      32.15       0.00      10870          0          0
  indicator        :       0.31       0.00          0          0          0
  intdiving        :       0.00       0.00          0          0          0
  intshifting      :       0.79       0.00        244          0          0
  linesearchdiving :      31.51       0.00      10871          0          0
  localbranching   :       0.00       0.00          0          0          0
  mutation         :       0.00       0.00          0          0          0
  nlpdiving        :       0.07       0.00          0          0          0
  objpscostdiving  :      18.18       0.00       2731          0          0
  octane           :       0.00       0.00          0          0          0
  ofins            :       0.00       0.00          0          0          0
  oneopt           :       0.61       0.00          3          0          0
  proximity        :       0.00       0.00          0          0          0
  pscostdiving     :      31.78       0.00      10871          0          0
  randrounding     :       1.69       0.00     152637          0          0
  rens             :       0.24       0.00          1          0          0
  reoptsols        :       0.00       0.00          0          0          0
  rins             :       6.80       0.00        165          2          2
  rootsoldiving    :      19.71       0.00       3424          0          0
  rounding         :       0.79       0.00      19103          0          0
  shiftandpropagate:       0.00       0.00          0          0          0
  shifting         :       1.55       0.00       5610          0          0
  simplerounding   :       0.34       0.00          0          0          0
  subnlp           :       0.64       0.00          0          0          0
  trivial          :       0.00       0.00          2          0          0
  trivialnegation  :       0.00       0.00          0          0          0
  trysol           :       0.68       0.00          0          0          0
  twoopt           :       0.00       0.00          0          0          0
  undercover       :       0.00       0.00          1          0          0
  vbounds          :       0.00       0.00          0          0          0
  veclendiving     :      37.12       0.00      10870          0          0
  zeroobj          :       0.00       0.00          0          0          0
  zirounding       :       0.42       0.00       1000          0          0
  other solutions  :          -          -          -          0          -
Diving Statistics  :      Calls      Nodes   LP Iters Backtracks   MinDepth   MaxDepth   AvgDepth  NLeafSols  MinSolDpt  MaxSolDpt  AvgSolDpt
  actconsdiving    :          0          -          -          -          -          -          -          -          -          -          -
  coefdiving       :      10871      80424     736309      15550         17         40       28.5          -          -          -          -
  distributiondivin:      10870      67878     727453      15572         17         41       27.4          -          -          -          -
  fracdiving       :      10871      74275     780189      16672         16         48       27.8          -          -          -          -
  guideddiving     :      10870      82478     787733      14570         18         49       28.9          -          -          -          -
  linesearchdiving :      10871      67820     765263      16461         17         40       27.2          -          -          -          -
  pscostdiving     :      10871      85057     746670      13754         17         47       29.0          -          -          -          -
  veclendiving     :      10870      78683     753299      20886         17         39       27.9          -          -          -          -
LP                 :       Time      Calls Iterations  Iter/call   Iter/sec  Time-0-It Calls-0-It
  primal LP        :       0.00         13          0       0.00          -       0.00         13
  dual LP          :    1427.59    3858970   60136318      18.55   42124.36      59.16     617023
  lex dual LP      :       0.00          0          0       0.00          -
  barrier LP       :       0.00          0          0       0.00          -       0.00          0
  diving/probing LP:     171.17     288098    7228185      25.09   42228.11
  strong branching :       5.24       5353     194164      36.27   37054.20
    (at root node) :          -         26       2699     103.81          -
  conflict analysis:       0.00          0          0       0.00          -
B&B Tree           :
  number of runs   :          1
  nodes            :    3560469 (1871807 internal, 1688662 leaves)
  nodes (total)    :    3560469 (1871807 internal, 1688662 leaves)
  nodes left       :     173654
  max depth        :         36
  max depth (total):         36
  backtracks       :    1032735 (29.0%)
  delayed cutoffs  :       8338
  repropagations   :     159757 (3667652 domain reductions, 7542 cutoffs)
  avg switch length:       6.96
  switching time   :     606.59
Root Node          :
  First LP value   : +3.00000000000000e+00
  First LP Iters   :        369
  First LP Time    :       0.00
  Final Dual Bound : +6.97889416287224e-03
  Final Root Iters :       3303
Solution           :
  Solutions found  :          5 (4 improvements)
  First Solution   : +7.75233822000010e-04   (in run 1, after 1 nodes, 0.06 seconds, depth 0, found by <SpaGreedy>)
  Gap First Sol.   :   infinite
  Gap Last Sol.    :      71.98 %
  Primal Bound     : +8.55289342999837e-04   (in run 1, after 125557 nodes, 133.72 seconds, depth 25, found by <rins>)
  Dual Bound       : +1.15155697067677e-03
  Gap              :      34.64 %
  Avg. Gap         :      40.77 % (146754.47 primal-dual integral)
